<number of tasks>
50

<cycle time>
1000

<order strength>
0.598


<task times>
1 510
2 407
3 354
4 585
5 448
6 554
7 605
8 487
9 448
10 333
11 536
12 618
13 487
14 703
15 391
16 441
17 565
18 516
19 642
20 522
21 396
22 495
23 420
24 523
25 449
26 334
27 520
28 626
29 461
30 614
31 349
32 513
33 526
34 609
35 417
36 565
37 545
38 490
39 367
40 414
41 425
42 482
43 453
44 685
45 451
46 570
47 421
48 448
49 625
50 697

<precedence relations>
1,10
2,10
3,21
4,5
4,6
4,7
4,8
4,9
5,10
6,10
7,10
8,17
9,10
9,11
9,12
10,13
10,14
10,15
10,16
10,17
10,18
11,19
11,20
11,22
13,33
14,21
15,22
16,23
17,33
18,21
19,21
20,21
21,24
21,25
21,26
21,27
21,28
21,29
21,30
21,31
21,32
22,25
22,32
22,36
23,24
23,25
24,33
25,33
26,33
27,43
28,35
29,34
29,36
30,34
31,35
32,33
33,37
33,38
33,39
33,40
33,41
34,42
37,42
37,43
37,44
39,42
40,43
40,45
41,43
42,48
44,45
44,46
44,47
46,49
47,49
47,50

<end>
